Li B  P  H  S  Cl
 1.0000000000000000
    20.1924584222360117    0.3538997414530348    0.3081776967333035
     0.0350937628506660    9.9561591061994488    0.0996534621921400
     0.0149274831510720   -0.0297914560155216    9.9307118289978273
 Li  B   P   H   S   Cl 
  48   1   8   4  40   7
Cartesian
  4.5051037602391020  7.2782542039462585  3.5727629252853519
 14.5930790037905513  7.4248508109209110  3.6880417081712449
  4.7398755433042767  1.7723426984285631  2.2311721510325850
 14.8103755637742314  1.9277517659823207  2.4436282042159783
  3.5363656035922819  8.8275368138213448  0.8527879293802842
 13.6164090455572264  9.0515367897671801  0.9796074028675154
  8.4668510837155342  2.5880595921591261  2.1780663622965966
 18.6159451458551750  2.7686206503293564  2.3005693766836965
  3.7035718172714382  0.0878517141877663  5.2120752026277941
 13.7908525582591341  0.2507466579905064  5.3718586150663041
  6.4461217149295722  9.2051121386854469  3.5122708993762646
 16.5342159457060056  9.3674739507051186  3.6802079977995104
  4.4854323747526035  2.2688804485795342  8.4686717850264923
 14.6362497518495864  2.4312049823868822  8.5691403481596815
  6.3991288275317695  4.2127703291932761  8.4877391640650579
 16.5736813323268741  4.3869183076309906  8.5398315591372835
  1.8134650016878715  0.2697568770621423  3.2370834027500845
 11.8952480710262236  0.3997331665937852  3.3908364886035831
  1.8282435098510172  5.2347792565675730  8.2571301308717207
 12.0027645366749187  5.4726912645068708  8.4298222264420541
  3.4832304903362883  3.8271466018507825  5.7748110665697983
 13.5756130940764059  3.9727244297778754  5.9073182265654269
  3.6986383553180224  5.0884717377907327  0.2987754795159505
 13.9930111286766028  5.0732251837991020  0.4255575735438803
  9.5468401571536692  0.3357244454113851  5.6126306472984160
 19.6354100911736218  0.5059434095095144  5.7331472600398063
  1.3695367464383070  0.0810546444426907  7.3715214528001844
 11.4803130794703900  0.2556269613094057  7.5389738278955667
  6.9222826528404626 10.0433593930763969  8.6809067858993458
 17.0213337778214324 10.1958736895675326  8.8014930257894211
  8.6102836307849060  7.5656133769720189  7.2971736532769693
 18.6520504865707544  7.7281713511277372  7.3333911150987321
  8.8093267850820904  2.0793332496617811  8.4539941668582443
 18.8762309487867768  2.2070780476796177  8.5387938898785229
  9.8896957257639642  9.0097108686595888 10.1381928407189008
 19.9239956981846831  9.1656917539287690 10.2774702593895242
  1.3722822505929178  5.0808993079003972  2.4547883464540030
 11.4034796456566667  4.9390518076231293  2.8499816351408875
  9.5688056849951142  5.4288921545308320  0.7609124567805911
 19.6474533953357628  5.4940672932109624  0.8194791237033159
  8.7601136319435753  7.0273982323687463  3.5171050952788785
 18.8816273485959911  7.2055290779831882  3.6217651538789175
  4.7780229185815077  6.7293945271945352  7.2489166250838153
 14.8958034286993577  6.9042581946683699  7.3822501590140117
  9.6286729810567291  4.1164439798807502  5.1929250066059875
 19.9152773503039562  4.1970900255263341  5.2483344353585251
  6.8126714978838105  5.0767410875001859  3.6584909763800519
 16.9873823827822079  5.2361891134213812  3.7933720415569376
 11.5682618255569878  7.0419523940495319  0.5272323320545733
  6.6271177869606630  7.1593902596208929  0.4756365989199253
 16.7264135773858413  7.3447935392315662  0.6104701901987204
  6.5959071301536278  2.1522599514099769  5.4091818164139047
 16.7221057578882828  2.3314358156741628  5.5151044941287015
  1.5830119301436942  7.0149266151918583  5.3841788601011240
 11.6715311416586154  7.1859082491969080  5.5573496858003431
  1.5568921725325882  2.0525685678254022  0.3715510852918645
 11.6591506134287624  2.2786492930616604  0.5315298190581043
 11.6887553810867306  8.2316422816360966  0.8181949094842597
 11.2188789664808297  6.4534100585763845  1.5431042511738717
 12.6563958712074704  6.6301478282560344  0.1259599599418467
 10.7294336172761078  6.9203764836444694 -0.3616896576628744
  2.7784669064533030  0.7461559342503493  9.2180466721821173
 12.8797524124069369  0.9907875226177082  9.3611550865607533
  0.2711730751203822  0.8525586679988492  1.4404390311736208
 10.3675765380560119  1.0962407388348034  1.6081137301019219
  5.3741178974395885  8.2338158147523277  9.2155023532412912
 15.4627823872390557  8.4062964613394460  9.3553833645164257
  7.8445117489631686  8.3778231533505334  1.5994133525764707
 17.9252392831604048  8.5754926638128612  1.7419951988061100
  4.1334754917771264  9.5519640137707622  3.0292507978931185
 14.2235888157209445  9.7018811616033371  3.1843836500445324
  2.7881748908725439  5.7399587631174409  4.2965908816079628
 12.8766796909451351  5.9168882090684578  4.4599379117820996
  0.2970789185460824  5.8104530793905802  6.4501136659484226
 10.4000182922271680  5.9865990830387785  6.6426592223910310
  5.3117664557124691  3.2397744784826026  4.2214683711617891
 15.4337678509030329  3.4355356197287823  4.3487246381650557
  7.7648620328132880  3.3883263418834995  6.5667362691184854
 17.9381962276120923  3.5580647468946132  6.6328511847287794
  4.1076922754194012  4.5503295212528130  7.9498043935071747
 14.2625693225879093  4.7095356191679860  8.0584604477622594
  7.8098176609987657  1.0960420778146949  4.1187599230392147
 17.9142217468439142  1.2673285162935639  4.2110233689149910
  5.5009946767570206  0.9075601824642416  6.6210132556550105
 15.6377476584564690  1.0776113050825908  6.7276399967889500
  0.4877607392806259  8.2473794950533019  4.1594009861544041
 10.5609849980023682  8.4228169612301187  4.3522980879996460
  2.7840236860035605  8.1220177652354693  6.6341822184916701
 12.8823652009314475  8.2811501074747493  6.8104973874298311
  9.2002616350091451  9.7567124647852310  7.9879306436452504
 19.2949536281038867  9.8870422153502666  8.1025409803779684
  7.8262677828136367  6.0329343423817221  9.1287369104309875
 17.9447434653278926  6.2454550057291147  9.2475989895430484
  5.4974051184023676  5.9399237975553385  1.6883319503103296
 15.6374963659077419  6.1039419722713504  1.8348476477492470
  0.4773636486906058  3.2521592099605781  9.0734425712883180
 10.5916388896926659  3.5295067291003219  9.2801144943333522
  2.7536543889613796  3.1634696843652010  1.6228541145599518
 12.8912135094585736  3.3561352365382402  1.7916670787179807
  9.0825850576193794  4.7353854631035910  2.9927074262400444
 19.2606335266359210  4.9266691235257678  3.0864073265275720
  1.5904540804714105  6.6037824562911736  0.4412253224688552
  1.5901050525126257  1.6157072558158101  5.3573625895659420
 11.7367503950024510  1.7595237107961907  5.5275535924728612
  6.6292307964223935  7.1700516640694687  5.0214831421345894
 16.7688294810591358  7.3371213015967918  5.1769261919858804
  6.6360050952849159  2.2076548954476030  0.0584060985796204
 16.7763988743261869  2.3938525138174440  0.1244897118164131
