pymatgen with grid density = 945 / number of atoms
0
Gamma
10 10 10
