Li48 B1 P8 H4 S40 Cl7
1.0
  19.6588187960409222    0.3286761173030846    0.3291836480200194
   0.0274009122221692    9.6083221649949646    0.1327262123948254
   0.0292249838536829    0.0074311386875957    9.6092207734644273
Li B P H S Cl
48 1 8 4 40 7
direct
   0.2235002366658649    0.7184106290123791    0.3406951670628623 Li
   0.7235002366658649    0.7184106290123791    0.3406951670628623 Li
   0.2387919526724435    0.1684694174389130    0.2023896285260476 Li
   0.7387919526724437    0.1684694174389130    0.2023896285260476 Li
   0.1645222062380665    0.8680189667060454    0.0760049286467450 Li
   0.6645222062380665    0.8680189667060455    0.0760049286467450 Li
   0.4145220016915154    0.2502235869321983    0.1937967581599286 Li
   0.9145220016915154    0.2502235869321982    0.1937967581599286 Li
   0.1839206610443279    0.0008490587790322    0.5223518451743996 Li
   0.6839206610443280    0.0008490587790322    0.5223518451743995 Li
   0.3167140601878747    0.9166802915382692    0.3402149926429588 Li
   0.8167140601878747    0.9166802915382692    0.3402149926429588 Li
   0.2235011276654401    0.2184057718927508    0.8406846265673077 Li
   0.7235011276654402    0.2184057718927508    0.8406846265673077 Li
   0.3167148262580010    0.4166767104679945    0.8402096842477054 Li
   0.8167148262580008    0.4166767104679944    0.8402096842477055 Li
   0.0919313984476312    0.0498595504869829    0.3168176674031830 Li
   0.5919313984476313    0.0498595504869829    0.3168176674031831 Li
   0.0919322722927868    0.5498602989963707    0.8168124672026619 Li
   0.5919322722927869    0.5498602989963706    0.8168124672026618 Li
   0.1645223054973138    0.3680205056600458    0.5759995626842797 Li
   0.6645223054973138    0.3680205056600458    0.5759995626842797 Li
   0.1839208894048384    0.5008398882474256    0.0223468135548610 Li
   0.6839208894048384    0.5008398882474256    0.0223468135548610 Li
   0.4735031912792474    0.0149169145068599    0.5441870207943740 Li
   0.9735031912792474    0.0149169145068599    0.5441870207943740 Li
   0.0667153828303446    0.0144264151343387    0.7424617536767353 Li
   0.5667153828303446    0.0144264151343387    0.7424617536767352 Li
   0.3419296754871542    0.9910449319409619    0.8756195091050797 Li
   0.8419296754871542    0.9910449319409621    0.8756195091050797 Li
   0.4145207122020304    0.7502254295812369    0.6937973939530862 Li
   0.9145207122020305    0.7502254295812369    0.6937973939530862 Li
   0.4339254212397217    0.1965695870544908    0.8266313317902343 Li
   0.9339254212397217    0.1965695870544908    0.8266313317902343 Li
   0.4887890096311466    0.8766088213346936    0.9942487980991409 Li
   0.9887890096311466    0.8766088213346938    0.9942487980991410 Li
   0.0667134721437818    0.5144347201727543    0.2424520865915651 Li
   0.5667134721437819    0.5144347201727543    0.2424520865915651 Li
   0.4735009769006273    0.5149125918050605    0.0441801975320180 Li
   0.9735009769006272    0.5149125918050605    0.0441801975320180 Li
   0.4339237243714752    0.6965727964507042    0.3266289405064986 Li
   0.9339237243714752    0.6965727964507044    0.3266289405064986 Li
   0.2387933626961340    0.6684669750871663    0.7023885817574897 Li
   0.7387933626961340    0.6684669750871662    0.7023885817574897 Li
   0.4887891456647853    0.3766144905688531    0.4942435557685121 Li
   0.9887891456647854    0.3766144905688531    0.4942435557685121 Li
   0.3419267562197338    0.4910470938512688    0.3756026714689251 Li
   0.8419267562197339    0.4910470938512688    0.3756026714689252 Li
   0.5778757432577502    0.6769490433490917    0.0377230381007927 B
   0.3256426952064106    0.7042808423872170    0.0317597885258925 P
   0.8256426952064106    0.7042808423872170    0.0317597885258925 P
   0.3256461130977004    0.2042786822087538    0.5317608509168072 P
   0.8256461130977004    0.2042786822087538    0.5317608509168071 P
   0.0756435249329249    0.7059842286729137    0.5300532101514535 P
   0.5756435249329249    0.7059842286729137    0.5300532101514535 P
   0.0756445657926756    0.2059841519591949    0.0300546796485984 P
   0.5756445657926758    0.2059841519591949    0.0300546796485984 P
   0.6129152566215941    0.7478026295439587    0.1076435629698581 H
   0.5426219944065044    0.6059912543210181    0.1120103560932827 H
   0.6133275591625598    0.6036859710421462   -0.0345790316923062 H
   0.5426381628403428    0.7503163184892442   -0.0341827349676638 H
   0.1390046716354845    0.0692012830415110    0.9244327369438542 S
   0.6390046716354845    0.0692012830415110    0.9244327369438543 S
   0.0076036514472682    0.0860899618954541    0.1399117826516100 S
   0.5076036514472683    0.0860899618954541    0.1399117826516100 S
   0.2576038624187007    0.8141419386538168    0.9118644349613523 S
   0.7576038624187008    0.8141419386538168    0.9118644349613524 S
   0.3843230679169682    0.8395947383099031    0.1396686562606096 S
   0.8843230679169682    0.8395947383099032    0.1396686562606096 S
   0.2025700362334879    0.9511858723817237    0.2886597980076756 S
   0.7025700362334881    0.9511858723817236    0.2886597980076756 S
   0.1390017667641550    0.5692008551380953    0.4244276951985094 S
   0.6390017667641551    0.5692008551380952    0.4244276951985094 S
   0.0076025651624724    0.5860910774998183    0.6399113318304170 S
   0.5076025651624725    0.5860910774998181    0.6399113318304172 S
   0.2576063933901593    0.3141396896418511    0.4118669263039798 S
   0.7576063933901593    0.3141396896418511    0.4118669263039798 S
   0.3843267453160390    0.3395911409062587    0.6396705067510221 S
   0.8843267453160391    0.3395911409062587    0.6396705067510220 S
   0.2025707192627311    0.4511822880725310    0.7886549367421841 S
   0.7025707192627312    0.4511822880725310    0.7886549367421840 S
   0.3890048324500694    0.0986532468293002    0.3949788343348966 S
   0.8890048324500694    0.0986532468293002    0.3949788343348965 S
   0.2752857978660211    0.0701234763168232    0.6637594443929101 S
   0.7752857978660211    0.0701234763168232    0.6637594443929100 S
   0.0252860725942839    0.8379893048559036    0.3959004366876693 S
   0.5252860725942839    0.8379893048559037    0.3959004366876693 S
   0.1343249057290393    0.8138843457528093    0.6653731696387295 S
   0.6343249057290394    0.8138843457528093    0.6653731696387295 S
   0.4525705805941362    0.9628778263702853    0.7769620436159091 S
   0.9525705805941361    0.9628778263702854    0.7769620436159091 S
   0.3890013476103543    0.5986538940882341    0.8949786551986629 S
   0.8890013476103543    0.5986538940882341    0.8949786551986630 S
   0.2752801692522626    0.5701301512504198    0.1637596949071912 S
   0.7752801692522626    0.5701301512504198    0.1637596949071912 S
   0.0252879127490800    0.3379873730878707    0.8958989505701725 S
   0.5252879127490800    0.3379873730878706    0.8958989505701727 S
   0.1343235471661440    0.3138870824867596    0.1653764205487353 S
   0.6343235471661440    0.3138870824867597    0.1653764205487353 S
   0.4525691622085292    0.4628811833348181    0.2769564353312422 S
   0.9525691622085293    0.4628811833348182    0.2769564353312423 S
   0.0778757432577501    0.6769490433490917    0.0377230381007927 Cl
   0.0778775874170353    0.1769470815689091    0.5377297434774776 Cl
   0.5778775874170353    0.1769470815689091    0.5377297434774775 Cl
   0.3278757386919444    0.7119451448530644    0.5027234230071792 Cl
   0.8278757386919446    0.7119451448530644    0.5027234230071791 Cl
   0.3278766051038899    0.2119482314398647    0.0027256523778820 Cl
   0.8278766051038901    0.2119482314398647    0.0027256523778820 Cl
